p cnf 205 850
-1 -33 0
-2 -33 0
1 2 33 0
1 2 -34 0
-1 -2 -34 0
-1 2 34 0
1 -2 34 0
33 -35 0
-3 -35 0
3 -33 35 0
3 -33 -36 0
-3 33 -36 0
3 33 36 0
-3 -33 36 0
35 -37 0
-4 -37 0
4 -35 37 0
4 -35 -38 0
-4 35 -38 0
4 35 38 0
-4 -35 38 0
37 -39 0
-5 -39 0
5 -37 39 0
5 -37 -40 0
-5 37 -40 0
5 37 40 0
-5 -37 40 0
39 -41 0
-6 -41 0
6 -39 41 0
6 -39 -42 0
-6 39 -42 0
6 39 42 0
-6 -39 42 0
41 -43 0
-7 -43 0
7 -41 43 0
7 -41 -44 0
-7 41 -44 0
7 41 44 0
-7 -41 44 0
43 -45 0
-8 -45 0
8 -43 45 0
8 -43 -46 0
-8 43 -46 0
8 43 46 0
-8 -43 46 0
5 -47 0
1 -47 0
-1 -5 47 0
-1 -5 -48 0
1 5 -48 0
1 -5 48 0
-1 5 48 0
-2 -6 49 0
-6 -47 49 0
-2 -47 49 0
2 6 -49 0
6 47 -49 0
2 47 -49 0
6 -49 -50 0
2 -49 -50 0
47 -49 -50 0
-6 49 50 0
-2 49 50 0
-47 49 50 0
-2 -6 -47 50 0
2 6 47 -50 0
-3 -7 51 0
-7 -49 51 0
-3 -49 51 0
3 7 -51 0
7 49 -51 0
3 49 -51 0
7 -51 -52 0
3 -51 -52 0
49 -51 -52 0
-7 51 52 0
-3 51 52 0
-49 51 52 0
-3 -7 -49 52 0
3 7 49 -52 0
-4 -8 53 0
-8 -51 53 0
-4 -51 53 0
4 8 -53 0
8 51 -53 0
4 51 -53 0
8 -53 -54 0
4 -53 -54 0
51 -53 -54 0
-8 53 54 0
-4 53 54 0
-51 53 54 0
-4 -8 -51 54 0
4 8 51 -54 0
5 -55 0
53 -55 0
-5 -53 55 0
-5 -53 -56 0
5 53 -56 0
-5 53 56 0
5 -53 56 0
6 -57 0
55 -57 0
-6 -55 57 0
-6 -55 -58 0
6 55 -58 0
-6 55 58 0
6 -55 58 0
7 -59 0
57 -59 0
-7 -57 59 0
-7 -57 -60 0
7 57 -60 0
-7 57 60 0
7 -57 60 0
8 -61 0
59 -61 0
-8 -59 61 0
-8 -59 -62 0
8 59 -62 0
-8 59 62 0
8 -59 62 0
50 -63 0
1 -63 0
-1 -50 63 0
-1 -50 -64 0
1 50 -64 0
1 -50 64 0
-1 50 64 0
-2 -52 65 0
-52 -63 65 0
-2 -63 65 0
2 52 -65 0
52 63 -65 0
2 63 -65 0
52 -65 -66 0
2 -65 -66 0
63 -65 -66 0
-52 65 66 0
-2 65 66 0
-63 65 66 0
-2 -52 -63 66 0
2 52 63 -66 0
-3 -54 67 0
-54 -65 67 0
-3 -65 67 0
3 54 -67 0
54 65 -67 0
3 65 -67 0
54 -67 -68 0
3 -67 -68 0
65 -67 -68 0
-54 67 68 0
-3 67 68 0
-65 67 68 0
-3 -54 -65 68 0
3 54 65 -68 0
-4 -56 69 0
-56 -67 69 0
-4 -67 69 0
4 56 -69 0
56 67 -69 0
4 67 -69 0
56 -69 -70 0
4 -69 -70 0
67 -69 -70 0
-56 69 70 0
-4 69 70 0
-67 69 70 0
-4 -56 -67 70 0
4 56 67 -70 0
-5 -58 71 0
-58 -69 71 0
-5 -69 71 0
5 58 -71 0
58 69 -71 0
5 69 -71 0
58 -71 -72 0
5 -71 -72 0
69 -71 -72 0
-58 71 72 0
-5 71 72 0
-69 71 72 0
-5 -58 -69 72 0
5 58 69 -72 0
-6 -60 73 0
-60 -71 73 0
-6 -71 73 0
6 60 -73 0
60 71 -73 0
6 71 -73 0
60 -73 -74 0
6 -73 -74 0
71 -73 -74 0
-60 73 74 0
-6 73 74 0
-71 73 74 0
-6 -60 -71 74 0
6 60 71 -74 0
-7 -62 75 0
-62 -73 75 0
-7 -73 75 0
7 62 -75 0
62 73 -75 0
7 73 -75 0
62 -75 -76 0
7 -75 -76 0
73 -75 -76 0
-62 75 76 0
-7 75 76 0
-73 75 76 0
-7 -62 -73 76 0
7 62 73 -76 0
-8 -61 77 0
-61 -75 77 0
-8 -75 77 0
8 61 -77 0
61 75 -77 0
8 75 -77 0
61 -77 -78 0
8 -77 -78 0
75 -77 -78 0
-61 77 78 0
-8 77 78 0
-75 77 78 0
-8 -61 -75 78 0
8 61 75 -78 0
-1 -79 0
-2 -79 0
1 2 79 0
1 2 -80 0
-1 -2 -80 0
-1 2 80 0
1 -2 80 0
79 -81 0
-3 -81 0
3 -79 81 0
3 -79 -82 0
-3 79 -82 0
3 79 82 0
-3 -79 82 0
81 -83 0
-4 -83 0
4 -81 83 0
4 -81 -84 0
-4 81 -84 0
4 81 84 0
-4 -81 84 0
83 -85 0
-48 -85 0
48 -83 85 0
48 -83 -86 0
-48 83 -86 0
48 83 86 0
-48 -83 86 0
85 -87 0
-64 -87 0
64 -85 87 0
64 -85 -88 0
-64 85 -88 0
64 85 88 0
-64 -85 88 0
87 -89 0
-66 -89 0
66 -87 89 0
66 -87 -90 0
-66 87 -90 0
66 87 90 0
-66 -87 90 0
89 -91 0
-68 -91 0
68 -89 91 0
68 -89 -92 0
-68 89 -92 0
68 89 92 0
-68 -89 92 0
91 -93 0
-70 -93 0
70 -91 93 0
70 -91 -94 0
-70 91 -94 0
70 91 94 0
-70 -91 94 0
93 -95 0
-72 -95 0
72 -93 95 0
72 -93 -96 0
-72 93 -96 0
72 93 96 0
-72 -93 96 0
95 -97 0
-74 -97 0
74 -95 97 0
74 -95 -98 0
-74 95 -98 0
74 95 98 0
-74 -95 98 0
97 -99 0
-76 -99 0
76 -97 99 0
76 -97 -100 0
-76 97 -100 0
76 97 100 0
-76 -97 100 0
99 -101 0
-78 -101 0
78 -99 101 0
78 -99 -102 0
-78 99 -102 0
78 99 102 0
-78 -99 102 0
101 -103 0
-77 -103 0
77 -101 103 0
77 -101 -104 0
-77 101 -104 0
77 101 104 0
-77 -101 104 0
-9 -105 0
-10 -105 0
9 10 105 0
9 10 -106 0
-9 -10 -106 0
-9 10 106 0
9 -10 106 0
105 -107 0
-11 -107 0
11 -105 107 0
11 -105 -108 0
-11 105 -108 0
11 105 108 0
-11 -105 108 0
107 -109 0
-12 -109 0
12 -107 109 0
12 -107 -110 0
-12 107 -110 0
12 107 110 0
-12 -107 110 0
109 -111 0
-13 -111 0
13 -109 111 0
13 -109 -112 0
-13 109 -112 0
13 109 112 0
-13 -109 112 0
111 -113 0
-14 -113 0
14 -111 113 0
14 -111 -114 0
-14 111 -114 0
14 111 114 0
-14 -111 114 0
113 -115 0
-15 -115 0
15 -113 115 0
15 -113 -116 0
-15 113 -116 0
15 113 116 0
-15 -113 116 0
115 -117 0
-16 -117 0
16 -115 117 0
16 -115 -118 0
-16 115 -118 0
16 115 118 0
-16 -115 118 0
11 -119 0
9 -119 0
-9 -11 119 0
-9 -11 -120 0
9 11 -120 0
9 -11 120 0
-9 11 120 0
-10 -12 121 0
-12 -119 121 0
-10 -119 121 0
10 12 -121 0
12 119 -121 0
10 119 -121 0
12 -121 -122 0
10 -121 -122 0
119 -121 -122 0
-12 121 122 0
-10 121 122 0
-119 121 122 0
-10 -12 -119 122 0
10 12 119 -122 0
-11 -13 123 0
-13 -121 123 0
-11 -121 123 0
11 13 -123 0
13 121 -123 0
11 121 -123 0
13 -123 -124 0
11 -123 -124 0
121 -123 -124 0
-13 123 124 0
-11 123 124 0
-121 123 124 0
-11 -13 -121 124 0
11 13 121 -124 0
-12 -14 125 0
-14 -123 125 0
-12 -123 125 0
12 14 -125 0
14 123 -125 0
12 123 -125 0
14 -125 -126 0
12 -125 -126 0
123 -125 -126 0
-14 125 126 0
-12 125 126 0
-123 125 126 0
-12 -14 -123 126 0
12 14 123 -126 0
-13 -15 127 0
-15 -125 127 0
-13 -125 127 0
13 15 -127 0
15 125 -127 0
13 125 -127 0
15 -127 -128 0
13 -127 -128 0
125 -127 -128 0
-15 127 128 0
-13 127 128 0
-125 127 128 0
-13 -15 -125 128 0
13 15 125 -128 0
-14 -16 129 0
-16 -127 129 0
-14 -127 129 0
14 16 -129 0
16 127 -129 0
14 127 -129 0
16 -129 -130 0
14 -129 -130 0
127 -129 -130 0
-16 129 130 0
-14 129 130 0
-127 129 130 0
-14 -16 -127 130 0
14 16 127 -130 0
15 -131 0
129 -131 0
-15 -129 131 0
-15 -129 -132 0
15 129 -132 0
-15 129 132 0
15 -129 132 0
16 -133 0
131 -133 0
-16 -131 133 0
-16 -131 -134 0
16 131 -134 0
-16 131 134 0
16 -131 134 0
126 -135 0
9 -135 0
-9 -126 135 0
-9 -126 -136 0
9 126 -136 0
9 -126 136 0
-9 126 136 0
-10 -128 137 0
-128 -135 137 0
-10 -135 137 0
10 128 -137 0
128 135 -137 0
10 135 -137 0
128 -137 -138 0
10 -137 -138 0
135 -137 -138 0
-128 137 138 0
-10 137 138 0
-135 137 138 0
-10 -128 -135 138 0
10 128 135 -138 0
-11 -130 139 0
-130 -137 139 0
-11 -137 139 0
11 130 -139 0
130 137 -139 0
11 137 -139 0
130 -139 -140 0
11 -139 -140 0
137 -139 -140 0
-130 139 140 0
-11 139 140 0
-137 139 140 0
-11 -130 -137 140 0
11 130 137 -140 0
-12 -132 141 0
-132 -139 141 0
-12 -139 141 0
12 132 -141 0
132 139 -141 0
12 139 -141 0
132 -141 -142 0
12 -141 -142 0
139 -141 -142 0
-132 141 142 0
-12 141 142 0
-139 141 142 0
-12 -132 -139 142 0
12 132 139 -142 0
-13 -134 143 0
-134 -141 143 0
-13 -141 143 0
13 134 -143 0
134 141 -143 0
13 141 -143 0
134 -143 -144 0
13 -143 -144 0
141 -143 -144 0
-134 143 144 0
-13 143 144 0
-141 143 144 0
-13 -134 -141 144 0
13 134 141 -144 0
-14 -133 145 0
-133 -143 145 0
-14 -143 145 0
14 133 -145 0
133 143 -145 0
14 143 -145 0
133 -145 -146 0
14 -145 -146 0
143 -145 -146 0
-133 145 146 0
-14 145 146 0
-143 145 146 0
-14 -133 -143 146 0
14 133 143 -146 0
15 -147 0
145 -147 0
-15 -145 147 0
-15 -145 -148 0
15 145 -148 0
-15 145 148 0
15 -145 148 0
16 -149 0
147 -149 0
-16 -147 149 0
-16 -147 -150 0
16 147 -150 0
-16 147 150 0
16 -147 150 0
-9 -151 0
-10 -151 0
9 10 151 0
9 10 -152 0
-9 -10 -152 0
-9 10 152 0
9 -10 152 0
151 -153 0
-120 -153 0
120 -151 153 0
120 -151 -154 0
-120 151 -154 0
120 151 154 0
-120 -151 154 0
153 -155 0
-122 -155 0
122 -153 155 0
122 -153 -156 0
-122 153 -156 0
122 153 156 0
-122 -153 156 0
155 -157 0
-124 -157 0
124 -155 157 0
124 -155 -158 0
-124 155 -158 0
124 155 158 0
-124 -155 158 0
157 -159 0
-136 -159 0
136 -157 159 0
136 -157 -160 0
-136 157 -160 0
136 157 160 0
-136 -157 160 0
159 -161 0
-138 -161 0
138 -159 161 0
138 -159 -162 0
-138 159 -162 0
138 159 162 0
-138 -159 162 0
161 -163 0
-140 -163 0
140 -161 163 0
140 -161 -164 0
-140 161 -164 0
140 161 164 0
-140 -161 164 0
163 -165 0
-142 -165 0
142 -163 165 0
142 -163 -166 0
-142 163 -166 0
142 163 166 0
-142 -163 166 0
165 -167 0
-144 -167 0
144 -165 167 0
144 -165 -168 0
-144 165 -168 0
144 165 168 0
-144 -165 168 0
167 -169 0
-146 -169 0
146 -167 169 0
146 -167 -170 0
-146 167 -170 0
146 167 170 0
-146 -167 170 0
169 -171 0
-148 -171 0
148 -169 171 0
148 -169 -172 0
-148 169 -172 0
148 169 172 0
-148 -169 172 0
171 -173 0
-150 -173 0
150 -171 173 0
150 -171 -174 0
-150 171 -174 0
150 171 174 0
-150 -171 174 0
173 -175 0
-149 -175 0
149 -173 175 0
149 -173 -176 0
-149 173 -176 0
149 173 176 0
-149 -173 176 0
1 -177 0
9 -177 0
-1 -9 177 0
-1 -9 -178 0
1 9 -178 0
-1 9 178 0
1 -9 178 0
-2 -10 179 0
-2 -177 179 0
-10 -177 179 0
2 10 -179 0
2 177 -179 0
10 177 -179 0
2 -179 -180 0
10 -179 -180 0
177 -179 -180 0
-2 179 180 0
-10 179 180 0
-177 179 180 0
-2 -10 -177 180 0
2 10 177 -180 0
-3 -120 181 0
-3 -179 181 0
-120 -179 181 0
3 120 -181 0
3 179 -181 0
120 179 -181 0
3 -181 -182 0
120 -181 -182 0
179 -181 -182 0
-3 181 182 0
-120 181 182 0
-179 181 182 0
-3 -120 -179 182 0
3 120 179 -182 0
-4 -122 183 0
-4 -181 183 0
-122 -181 183 0
4 122 -183 0
4 181 -183 0
122 181 -183 0
4 -183 -184 0
122 -183 -184 0
181 -183 -184 0
-4 183 184 0
-122 183 184 0
-181 183 184 0
-4 -122 -181 184 0
4 122 181 -184 0
-48 -124 185 0
-48 -183 185 0
-124 -183 185 0
48 124 -185 0
48 183 -185 0
124 183 -185 0
48 -185 -186 0
124 -185 -186 0
183 -185 -186 0
-48 185 186 0
-124 185 186 0
-183 185 186 0
-48 -124 -183 186 0
48 124 183 -186 0
-64 -136 187 0
-64 -185 187 0
-136 -185 187 0
64 136 -187 0
64 185 -187 0
136 185 -187 0
64 -187 -188 0
136 -187 -188 0
185 -187 -188 0
-64 187 188 0
-136 187 188 0
-185 187 188 0
-64 -136 -185 188 0
64 136 185 -188 0
-66 -138 189 0
-66 -187 189 0
-138 -187 189 0
66 138 -189 0
66 187 -189 0
138 187 -189 0
66 -189 -190 0
138 -189 -190 0
187 -189 -190 0
-66 189 190 0
-138 189 190 0
-187 189 190 0
-66 -138 -187 190 0
66 138 187 -190 0
-68 -140 191 0
-68 -189 191 0
-140 -189 191 0
68 140 -191 0
68 189 -191 0
140 189 -191 0
68 -191 -192 0
140 -191 -192 0
189 -191 -192 0
-68 191 192 0
-140 191 192 0
-189 191 192 0
-68 -140 -189 192 0
68 140 189 -192 0
-70 -142 193 0
-70 -191 193 0
-142 -191 193 0
70 142 -193 0
70 191 -193 0
142 191 -193 0
70 -193 -194 0
142 -193 -194 0
191 -193 -194 0
-70 193 194 0
-142 193 194 0
-191 193 194 0
-70 -142 -191 194 0
70 142 191 -194 0
-72 -144 195 0
-72 -193 195 0
-144 -193 195 0
72 144 -195 0
72 193 -195 0
144 193 -195 0
72 -195 -196 0
144 -195 -196 0
193 -195 -196 0
-72 195 196 0
-144 195 196 0
-193 195 196 0
-72 -144 -193 196 0
72 144 193 -196 0
-74 -146 197 0
-74 -195 197 0
-146 -195 197 0
74 146 -197 0
74 195 -197 0
146 195 -197 0
74 -197 -198 0
146 -197 -198 0
195 -197 -198 0
-74 197 198 0
-146 197 198 0
-195 197 198 0
-74 -146 -195 198 0
74 146 195 -198 0
-76 -148 199 0
-76 -197 199 0
-148 -197 199 0
76 148 -199 0
76 197 -199 0
148 197 -199 0
76 -199 -200 0
148 -199 -200 0
197 -199 -200 0
-76 199 200 0
-148 199 200 0
-197 199 200 0
-76 -148 -197 200 0
76 148 197 -200 0
-78 -150 201 0
-78 -199 201 0
-150 -199 201 0
78 150 -201 0
78 199 -201 0
150 199 -201 0
78 -201 -202 0
150 -201 -202 0
199 -201 -202 0
-78 201 202 0
-150 201 202 0
-199 201 202 0
-78 -150 -199 202 0
78 150 199 -202 0
-77 -149 203 0
-77 -201 203 0
-149 -201 203 0
77 149 -203 0
77 201 -203 0
149 201 -203 0
77 -203 -204 0
149 -203 -204 0
201 -203 -204 0
-77 203 204 0
-149 203 204 0
-201 203 204 0
-77 -149 -201 204 0
77 149 201 -204 0
-178 -205 0
-180 -205 0
182 -205 0
-184 -205 0
-186 -205 0
-188 -205 0
-190 -205 0
-192 -205 0
-194 -205 0
-196 -205 0
-198 -205 0
-200 -205 0
-202 -205 0
-203 -205 0
-204 -205 0
178 180 -182 184 186 188 190 192 194 196 198 200 202 203 204 205 0
205 0
c main::$tmp::return_value_nondet_char!0@1#1 17 18 19 20 21 22 23 24
c symex::nondet1 9 10 11 12 13 14 15 16
c symex::nondet0 1 2 3 4 5 6 7 8
c main::$tmp::return_value_nondet_char$0!0@1#2 9 10 11 12 13 14 15 16
c __CPROVER_rounding_mode!0#1 FALSE FALSE FALSE FALSE FALSE FALSE FALSE FALSE FALSE FALSE FALSE FALSE FALSE FALSE FALSE FALSE FALSE FALSE FALSE FALSE FALSE FALSE FALSE FALSE FALSE FALSE FALSE FALSE FALSE FALSE FALSE FALSE
c main::$tmp::return_value_nondet_char$0!0@1#1 25 26 27 28 29 30 31 32
c __CPROVER_memory_leak#1 FALSE FALSE FALSE FALSE FALSE FALSE FALSE FALSE FALSE FALSE FALSE FALSE FALSE FALSE FALSE FALSE FALSE FALSE FALSE FALSE FALSE FALSE FALSE FALSE FALSE FALSE FALSE FALSE FALSE FALSE FALSE FALSE FALSE FALSE FALSE FALSE FALSE FALSE FALSE FALSE FALSE FALSE FALSE FALSE FALSE FALSE FALSE FALSE FALSE FALSE FALSE FALSE FALSE FALSE FALSE FALSE FALSE FALSE FALSE FALSE FALSE FALSE FALSE FALSE
c __CPROVER_max_malloc_size#1 FALSE FALSE FALSE FALSE FALSE FALSE FALSE FALSE FALSE FALSE FALSE FALSE FALSE FALSE FALSE FALSE FALSE FALSE FALSE FALSE FALSE FALSE FALSE FALSE FALSE FALSE FALSE FALSE FALSE FALSE FALSE FALSE FALSE FALSE FALSE FALSE FALSE FALSE FALSE FALSE FALSE FALSE FALSE FALSE FALSE FALSE FALSE FALSE FALSE FALSE FALSE FALSE FALSE FALSE FALSE TRUE FALSE FALSE FALSE FALSE FALSE FALSE FALSE FALSE
c __CPROVER_deallocated#1 FALSE FALSE FALSE FALSE FALSE FALSE FALSE FALSE FALSE FALSE FALSE FALSE FALSE FALSE FALSE FALSE FALSE FALSE FALSE FALSE FALSE FALSE FALSE FALSE FALSE FALSE FALSE FALSE FALSE FALSE FALSE FALSE FALSE FALSE FALSE FALSE FALSE FALSE FALSE FALSE FALSE FALSE FALSE FALSE FALSE FALSE FALSE FALSE FALSE FALSE FALSE FALSE FALSE FALSE FALSE FALSE FALSE FALSE FALSE FALSE FALSE FALSE FALSE FALSE
c main::$tmp::return_value_nondet_char!0@1#2 1 2 3 4 5 6 7 8
c __CPROVER_dead_object#1 FALSE FALSE FALSE FALSE FALSE FALSE FALSE FALSE FALSE FALSE FALSE FALSE FALSE FALSE FALSE FALSE FALSE FALSE FALSE FALSE FALSE FALSE FALSE FALSE FALSE FALSE FALSE FALSE FALSE FALSE FALSE FALSE FALSE FALSE FALSE FALSE FALSE FALSE FALSE FALSE FALSE FALSE FALSE FALSE FALSE FALSE FALSE FALSE FALSE FALSE FALSE FALSE FALSE FALSE FALSE FALSE FALSE FALSE FALSE FALSE FALSE FALSE FALSE FALSE
